Instance name : SB_bar-n100-6
Authors : 
Date : 
Reference 
Solution
Route 1 : 31 32 82 81 38 40 12 88 62 42 19 18 90 69 68 45 35 14 85 64 92 15 95 36 86 46 65 96 
Route 2 : 20 29 79 70 41 91 6 47 97 56 30 9 80 8 58 59 3 49 99 10 53 60 50 33 83 100 
Route 3 : 43 37 93 16 66 22 72 1 51 87 5 17 11 67 2 55 44 52 21 71 24 61 94 74 
Route 4 : 4 7 54 34 48 28 84 57 98 13 23 73 26 27 77 78 63 76 25 39 89 75 
